p tw 112 16241 2 
1 57 
1 59 
1 61 
1 63 
1 65 
1 67 
1 69 
1 71 
1 73 
1 75 
1 77 
1 79 
1 81 
1 83 
1 86 
1 87 
1 89 
1 91 
1 93 
1 95 
1 97 
1 99 
1 101 
1 103 
1 105 
1 107 
1 109 
1 111 
2 58 
2 60 
2 62 
2 64 
2 66 
2 68 
2 70 
2 72 
2 74 
2 76 
2 78 
2 80 
2 82 
2 84 
2 85 
2 88 
2 90 
2 92 
2 94 
2 96 
2 98 
2 100 
2 102 
2 104 
2 106 
2 108 
2 110 
2 112 
3 4 
3 57 
3 59 
3 61 
3 64 
3 65 
3 67 
3 70 
3 72 
3 74 
3 76 
3 77 
3 79 
3 82 
3 83 
3 85 
3 88 
3 89 
3 92 
3 93 
3 95 
3 98 
3 100 
3 102 
3 104 
3 105 
3 107 
3 110 
3 111 
4 58 
4 60 
4 62 
4 63 
4 66 
4 68 
4 69 
4 71 
4 73 
4 75 
4 78 
4 80 
4 81 
4 84 
4 86 
4 87 
4 90 
4 91 
4 94 
4 96 
4 97 
4 99 
4 101 
4 103 
4 106 
4 108 
4 109 
4 112 
5 6 
5 57 
5 59 
5 61 
5 63 
5 66 
5 67 
5 69 
5 72 
5 74 
5 76 
5 78 
5 79 
5 81 
5 84 
5 85 
5 87 
5 90 
5 91 
5 94 
5 95 
5 97 
5 100 
5 102 
5 104 
5 106 
5 107 
5 109 
5 112 
6 58 
6 60 
6 62 
6 64 
6 65 
6 68 
6 70 
6 71 
6 73 
6 75 
6 77 
6 80 
6 82 
6 83 
6 86 
6 88 
6 89 
6 92 
6 93 
6 96 
6 98 
6 99 
6 101 
6 103 
6 105 
6 108 
6 110 
6 111 
7 8 
7 57 
7 60 
7 61 
7 63 
7 65 
7 68 
7 69 
7 71 
7 74 
7 76 
7 78 
7 80 
7 81 
7 83 
7 85 
7 88 
7 89 
7 92 
7 93 
7 96 
7 97 
7 99 
7 102 
7 104 
7 106 
7 108 
7 109 
7 111 
8 58 
8 59 
8 62 
8 64 
8 66 
8 67 
8 70 
8 72 
8 73 
8 75 
8 77 
8 79 
8 82 
8 84 
8 86 
8 87 
8 90 
8 91 
8 94 
8 95 
8 98 
8 100 
8 101 
8 103 
8 105 
8 107 
8 110 
8 112 
9 10 
9 57 
9 59 
9 62 
9 63 
9 65 
9 67 
9 70 
9 71 
9 73 
9 76 
9 78 
9 80 
9 82 
9 83 
9 85 
9 87 
9 90 
9 91 
9 94 
9 95 
9 98 
9 99 
9 101 
9 104 
9 106 
9 108 
9 110 
9 111 
10 58 
10 60 
10 61 
10 64 
10 66 
10 68 
10 69 
10 72 
10 74 
10 75 
10 77 
10 79 
10 81 
10 84 
10 86 
10 88 
10 89 
10 92 
10 93 
10 96 
10 97 
10 100 
10 102 
10 103 
10 105 
10 107 
10 109 
10 112 
11 12 
11 57 
11 59 
11 61 
11 64 
11 65 
11 67 
11 69 
11 72 
11 73 
11 75 
11 78 
11 80 
11 82 
11 84 
11 85 
11 87 
11 89 
11 92 
11 93 
11 96 
11 97 
11 100 
11 101 
11 103 
11 106 
11 108 
11 110 
11 112 
12 58 
12 60 
12 62 
12 63 
12 66 
12 68 
12 70 
12 71 
12 74 
12 76 
12 77 
12 79 
12 81 
12 83 
12 86 
12 88 
12 90 
12 91 
12 94 
12 95 
12 98 
12 99 
12 102 
12 104 
12 105 
12 107 
12 109 
12 111 
13 14 
13 57 
13 60 
13 61 
13 63 
13 66 
13 67 
13 69 
13 71 
13 74 
13 75 
13 77 
13 80 
13 82 
13 84 
13 85 
13 88 
13 89 
13 91 
13 94 
13 95 
13 98 
13 99 
13 102 
13 103 
13 105 
13 108 
13 110 
13 112 
14 58 
14 59 
14 62 
14 64 
14 65 
14 68 
14 70 
14 72 
14 73 
14 76 
14 78 
14 79 
14 81 
14 83 
14 86 
14 87 
14 90 
14 92 
14 93 
14 96 
14 97 
14 100 
14 101 
14 104 
14 106 
14 107 
14 109 
14 111 
15 16 
15 57 
15 60 
15 62 
15 63 
15 65 
15 68 
15 69 
15 71 
15 73 
15 76 
15 77 
15 79 
15 82 
15 84 
15 85 
15 88 
15 90 
15 91 
15 93 
15 96 
15 97 
15 100 
15 101 
15 104 
15 105 
15 107 
15 110 
15 112 
16 58 
16 59 
16 61 
16 64 
16 66 
16 67 
16 70 
16 72 
16 74 
16 75 
16 78 
16 80 
16 81 
16 83 
16 86 
16 87 
16 89 
16 92 
16 94 
16 95 
16 98 
16 99 
16 102 
16 103 
16 106 
16 108 
16 109 
16 111 
17 18 
17 57 
17 60 
17 62 
17 64 
17 65 
17 67 
17 70 
17 71 
17 73 
17 75 
17 78 
17 79 
17 81 
17 84 
17 85 
17 88 
17 90 
17 92 
17 93 
17 95 
17 98 
17 99 
17 102 
17 103 
17 106 
17 107 
17 109 
17 112 
18 58 
18 59 
18 61 
18 63 
18 66 
18 68 
18 69 
18 72 
18 74 
18 76 
18 77 
18 80 
18 82 
18 83 
18 86 
18 87 
18 89 
18 91 
18 94 
18 96 
18 97 
18 100 
18 101 
18 104 
18 105 
18 108 
18 110 
18 111 
19 20 
19 57 
19 60 
19 62 
19 64 
19 66 
19 67 
19 69 
19 72 
19 73 
19 75 
19 77 
19 80 
19 81 
19 83 
19 85 
19 88 
19 90 
19 92 
19 94 
19 95 
19 97 
19 100 
19 101 
19 104 
19 105 
19 108 
19 109 
19 111 
20 58 
20 59 
20 61 
20 63 
20 65 
20 68 
20 70 
20 71 
20 74 
20 76 
20 78 
20 79 
20 82 
20 84 
20 86 
20 87 
20 89 
20 91 
20 93 
20 96 
20 98 
20 99 
20 102 
20 103 
20 106 
20 107 
20 110 
20 112 
21 22 
21 57 
21 59 
21 62 
21 64 
21 66 
21 68 
21 69 
21 71 
21 74 
21 75 
21 77 
21 79 
21 82 
21 83 
21 85 
21 87 
21 90 
21 92 
21 94 
21 96 
21 97 
21 99 
21 102 
21 103 
21 106 
21 107 
21 110 
21 111 
22 58 
22 60 
22 61 
22 63 
22 65 
22 67 
22 70 
22 72 
22 73 
22 76 
22 78 
22 80 
22 81 
22 84 
22 86 
22 88 
22 89 
22 91 
22 93 
22 95 
22 98 
22 100 
22 101 
22 104 
22 105 
22 108 
22 109 
22 112 
23 24 
23 57 
23 59 
23 61 
23 64 
23 66 
23 68 
23 70 
23 71 
23 73 
23 76 
23 77 
23 79 
23 81 
23 84 
23 85 
23 87 
23 89 
23 92 
23 94 
23 96 
23 98 
23 99 
23 101 
23 104 
23 105 
23 108 
23 109 
23 112 
24 58 
24 60 
24 62 
24 63 
24 65 
24 67 
24 69 
24 72 
24 74 
24 75 
24 78 
24 80 
24 82 
24 83 
24 86 
24 88 
24 90 
24 91 
24 93 
24 95 
24 97 
24 100 
24 102 
24 103 
24 106 
24 107 
24 110 
24 111 
25 26 
25 57 
25 60 
25 61 
25 63 
25 66 
25 68 
25 70 
25 72 
25 73 
25 75 
25 78 
25 79 
25 81 
25 83 
25 85 
25 88 
25 89 
25 91 
25 94 
25 96 
25 98 
25 100 
25 101 
25 103 
25 106 
25 107 
25 110 
25 111 
26 58 
26 59 
26 62 
26 64 
26 65 
26 67 
26 69 
26 71 
26 74 
26 76 
26 77 
26 80 
26 82 
26 84 
26 86 
26 87 
26 90 
26 92 
26 93 
26 95 
26 97 
26 99 
26 102 
26 104 
26 105 
26 108 
26 109 
26 112 
27 28 
27 57 
27 59 
27 62 
27 63 
27 65 
27 68 
27 70 
27 72 
27 74 
27 75 
27 77 
27 80 
27 81 
27 83 
27 85 
27 87 
27 90 
27 91 
27 93 
27 96 
27 98 
27 100 
27 102 
27 103 
27 105 
27 108 
27 109 
27 112 
28 58 
28 60 
28 61 
28 64 
28 66 
28 67 
28 69 
28 71 
28 73 
28 76 
28 78 
28 79 
28 82 
28 84 
28 86 
28 88 
28 89 
28 92 
28 94 
28 95 
28 97 
28 99 
28 101 
28 104 
28 106 
28 107 
28 110 
28 111 
29 30 
29 58 
29 59 
29 61 
29 63 
29 65 
29 67 
29 69 
29 71 
29 73 
29 75 
29 77 
29 79 
29 81 
29 83 
29 86 
29 88 
29 90 
29 92 
29 94 
29 96 
29 98 
29 100 
29 102 
29 104 
29 106 
29 108 
29 110 
29 112 
30 57 
30 60 
30 62 
30 64 
30 66 
30 68 
30 70 
30 72 
30 74 
30 76 
30 78 
30 80 
30 82 
30 84 
30 85 
30 87 
30 89 
30 91 
30 93 
30 95 
30 97 
30 99 
30 101 
30 103 
30 105 
30 107 
30 109 
30 111 
31 32 
31 57 
31 60 
31 61 
31 64 
31 65 
31 67 
31 70 
31 72 
31 74 
31 76 
31 77 
31 79 
31 82 
31 83 
31 86 
31 88 
31 90 
31 91 
31 94 
31 96 
31 97 
31 99 
31 101 
31 103 
31 106 
31 108 
31 109 
31 112 
32 58 
32 59 
32 62 
32 63 
32 66 
32 68 
32 69 
32 71 
32 73 
32 75 
32 78 
32 80 
32 81 
32 84 
32 85 
32 87 
32 89 
32 92 
32 93 
32 95 
32 98 
32 100 
32 102 
32 104 
32 105 
32 107 
32 110 
32 111 
33 34 
33 57 
33 59 
33 62 
33 63 
33 66 
33 67 
33 69 
33 72 
33 74 
33 76 
33 78 
33 79 
33 81 
33 84 
33 86 
33 88 
33 90 
33 92 
33 93 
33 96 
33 98 
33 99 
33 101 
33 103 
33 105 
33 108 
33 110 
33 111 
34 58 
34 60 
34 61 
34 64 
34 65 
34 68 
34 70 
34 71 
34 73 
34 75 
34 77 
34 80 
34 82 
34 83 
34 85 
34 87 
34 89 
34 91 
34 94 
34 95 
34 97 
34 100 
34 102 
34 104 
34 106 
34 107 
34 109 
34 112 
35 36 
35 57 
35 60 
35 61 
35 64 
35 65 
35 68 
35 69 
35 71 
35 74 
35 76 
35 78 
35 80 
35 81 
35 83 
35 86 
35 87 
35 90 
35 92 
35 94 
35 95 
35 98 
35 100 
35 101 
35 103 
35 105 
35 107 
35 110 
35 112 
36 58 
36 59 
36 62 
36 63 
36 66 
36 67 
36 70 
36 72 
36 73 
36 75 
36 77 
36 79 
36 82 
36 84 
36 85 
36 88 
36 89 
36 91 
36 93 
36 96 
36 97 
36 99 
36 102 
36 104 
36 106 
36 108 
36 109 
36 111 
37 38 
37 57 
37 59 
37 62 
37 63 
37 66 
37 67 
37 70 
37 71 
37 73 
37 76 
37 78 
37 80 
37 82 
37 83 
37 86 
37 88 
37 89 
37 92 
37 94 
37 96 
37 97 
37 100 
37 102 
37 103 
37 105 
37 107 
37 109 
37 112 
38 58 
38 60 
38 61 
38 64 
38 65 
38 68 
38 69 
38 72 
38 74 
38 75 
38 77 
38 79 
38 81 
38 84 
38 85 
38 87 
38 90 
38 91 
38 93 
38 95 
38 98 
38 99 
38 101 
38 104 
38 106 
38 108 
38 110 
38 111 
39 40 
39 57 
39 59 
39 61 
39 64 
39 65 
39 68 
39 69 
39 72 
39 73 
39 75 
39 78 
39 80 
39 82 
39 84 
39 86 
39 88 
39 90 
39 91 
39 94 
39 96 
39 98 
39 99 
39 102 
39 104 
39 105 
39 107 
39 109 
39 111 
40 58 
40 60 
40 62 
40 63 
40 66 
40 67 
40 70 
40 71 
40 74 
40 76 
40 77 
40 79 
40 81 
40 83 
40 85 
40 87 
40 89 
40 92 
40 93 
40 95 
40 97 
40 100 
40 101 
40 103 
40 106 
40 108 
40 110 
40 112 
41 42 
41 57 
41 60 
41 61 
41 63 
41 66 
41 67 
41 70 
41 71 
41 74 
41 75 
41 77 
41 80 
41 82 
41 84 
41 86 
41 87 
41 90 
41 92 
41 93 
41 96 
41 98 
41 100 
41 101 
41 104 
41 106 
41 107 
41 109 
41 111 
42 58 
42 59 
42 62 
42 64 
42 65 
42 68 
42 69 
42 72 
42 73 
42 76 
42 78 
42 79 
42 81 
42 83 
42 85 
42 88 
42 89 
42 91 
42 94 
42 95 
42 97 
42 99 
42 102 
42 103 
42 105 
42 108 
42 110 
42 112 
43 44 
43 57 
43 60 
43 62 
43 63 
43 65 
43 68 
43 69 
43 72 
43 73 
43 76 
43 77 
43 79 
43 82 
43 84 
43 86 
43 87 
43 89 
43 92 
43 94 
43 95 
43 98 
43 100 
43 102 
43 103 
43 106 
43 108 
43 109 
43 111 
44 58 
44 59 
44 61 
44 64 
44 66 
44 67 
44 70 
44 71 
44 74 
44 75 
44 78 
44 80 
44 81 
44 83 
44 85 
44 88 
44 90 
44 91 
44 93 
44 96 
44 97 
44 99 
44 101 
44 104 
44 105 
44 107 
44 110 
44 112 
45 46 
45 57 
45 60 
45 62 
45 64 
45 65 
45 67 
45 70 
45 71 
45 74 
45 75 
45 78 
45 79 
45 81 
45 84 
45 86 
45 87 
45 89 
45 91 
45 94 
45 96 
45 97 
45 100 
45 102 
45 104 
45 105 
45 108 
45 110 
45 111 
46 58 
46 59 
46 61 
46 63 
46 66 
46 68 
46 69 
46 72 
46 73 
46 76 
46 77 
46 80 
46 82 
46 83 
46 85 
46 88 
46 90 
46 92 
46 93 
46 95 
46 98 
46 99 
46 101 
46 103 
46 106 
46 107 
46 109 
46 112 
47 48 
47 57 
47 60 
47 62 
47 64 
47 66 
47 67 
47 69 
47 72 
47 73 
47 76 
47 77 
47 80 
47 81 
47 83 
47 86 
47 87 
47 89 
47 91 
47 93 
47 96 
47 98 
47 99 
47 102 
47 104 
47 106 
47 107 
47 110 
47 112 
48 58 
48 59 
48 61 
48 63 
48 65 
48 68 
48 70 
48 71 
48 74 
48 75 
48 78 
48 79 
48 82 
48 84 
48 85 
48 88 
48 90 
48 92 
48 94 
48 95 
48 97 
48 100 
48 101 
48 103 
48 105 
48 108 
48 109 
48 111 
49 50 
49 57 
49 59 
49 62 
49 64 
49 66 
49 68 
49 69 
49 71 
49 74 
49 75 
49 78 
49 79 
49 82 
49 83 
49 86 
49 88 
49 89 
49 91 
49 93 
49 95 
49 98 
49 100 
49 101 
49 104 
49 106 
49 108 
49 109 
49 112 
50 58 
50 60 
50 61 
50 63 
50 65 
50 67 
50 70 
50 72 
50 73 
50 76 
50 77 
50 80 
50 81 
50 84 
50 85 
50 87 
50 90 
50 92 
50 94 
50 96 
50 97 
50 99 
50 102 
50 103 
50 105 
50 107 
50 110 
50 111 
51 52 
51 57 
51 59 
51 61 
51 64 
51 66 
51 68 
51 70 
51 71 
51 73 
51 76 
51 77 
51 80 
51 81 
51 84 
51 86 
51 88 
51 90 
51 91 
51 93 
51 95 
51 97 
51 100 
51 102 
51 103 
51 106 
51 108 
51 110 
51 111 
52 58 
52 60 
52 62 
52 63 
52 65 
52 67 
52 69 
52 72 
52 74 
52 75 
52 78 
52 79 
52 82 
52 83 
52 85 
52 87 
52 89 
52 92 
52 94 
52 96 
52 98 
52 99 
52 101 
52 104 
52 105 
52 107 
52 109 
52 112 
53 54 
53 57 
53 60 
53 61 
53 63 
53 66 
53 68 
53 70 
53 72 
53 73 
53 75 
53 78 
53 79 
53 82 
53 83 
53 86 
53 87 
53 90 
53 92 
53 93 
53 95 
53 97 
53 99 
53 102 
53 104 
53 105 
53 108 
53 110 
53 112 
54 58 
54 59 
54 62 
54 64 
54 65 
54 67 
54 69 
54 71 
54 74 
54 76 
54 77 
54 80 
54 81 
54 84 
54 85 
54 88 
54 89 
54 91 
54 94 
54 96 
54 98 
54 100 
54 101 
54 103 
54 106 
54 107 
54 109 
54 111 
55 56 
55 57 
55 59 
55 62 
55 63 
55 65 
55 68 
55 70 
55 72 
55 74 
55 75 
55 77 
55 80 
55 81 
55 84 
55 86 
55 88 
55 89 
55 92 
55 94 
55 95 
55 97 
55 99 
55 101 
55 104 
55 106 
55 107 
55 110 
55 112 
56 58 
56 60 
56 61 
56 64 
56 66 
56 67 
56 69 
56 71 
56 73 
56 76 
56 78 
56 79 
56 82 
56 83 
56 85 
56 87 
56 90 
56 91 
56 93 
56 96 
56 98 
56 100 
56 102 
56 103 
56 105 
56 108 
56 109 
56 111 
57 58 
59 60 
61 62 
63 64 
65 66 
67 68 
69 70 
71 72 
73 74 
75 76 
77 78 
79 80 
81 82 
83 84 
85 86 
87 88 
89 90 
91 92 
93 94 
95 96 
97 98 
99 100 
101 102 
103 104 
105 106 
107 108 
109 110 
111 112 
